\ LP format - for model browsing. Use MPS format to capture full model detail.
Maximize
  x[0] + x[1] + x[2] + x[3] + x[4] + x[5] + x[6] + x[7] + x[8] + x[9]
Subject To
 R0: - 5 x[0] + x[1] + x[2] + x[3] + x[4] + x[5] + x[6] + y[1] + y[2]
   + y[3] + y[4] + y[5] + y[6] >= 0
 R1: x[0] - 5 x[1] + x[2] + x[3] + y[0] + y[2] + y[3] >= 0
 R2: x[0] + x[1] - 5 x[2] + x[3] + y[0] + y[1] + y[3] >= 0
 R3: x[0] + x[1] + x[2] - 5 x[3] + x[7] + y[0] + y[1] + y[2] + y[7] >= 0
 R4: x[0] - 5 x[4] + x[5] + x[6] + x[8] + y[0] + y[5] + y[6] + y[8] >= 0
 R5: x[0] + x[4] - 5 x[5] + x[6] + y[0] + y[4] + y[6] >= 0
 R6: x[0] + x[4] + x[5] - 5 x[6] + y[0] + y[4] + y[5] >= 0
 R7: x[3] - 5 x[7] + x[8] + x[9] + y[3] + y[8] + y[9] >= 0
 R8: x[4] + x[7] - 5 x[8] + x[9] + y[4] + y[7] + y[9] >= 0
 R9: x[7] + x[8] - 5 x[9] + y[7] + y[8] >= 0
 R10: x[0] + y[0] <= 1
 R11: x[1] + y[1] <= 1
 R12: x[2] + y[2] <= 1
 R13: x[3] + y[3] <= 1
 R14: x[4] + y[4] <= 1
 R15: x[5] + y[5] <= 1
 R16: x[6] + y[6] <= 1
 R17: x[7] + y[7] <= 1
 R18: x[8] + y[8] <= 1
 R19: x[9] + y[9] <= 1
 R20: y[0] + y[1] + y[2] + y[3] + y[4] + y[5] + y[6] + y[7] + y[8] + y[9]
   <= 5
Bounds
 x[1] = 0
 x[2] = 0
 x[3] = 0
 x[4] = 0
 x[5] = 0
 x[6] = 0
 x[7] = 0
 x[8] = 0
 x[9] = 0
Binaries
 x[0] x[1] x[2] x[3] x[4] x[5] x[6] x[7] x[8] x[9] y[0] y[1] y[2] y[3] y[4]
 y[5] y[6] y[7] y[8] y[9]
End
